[VALIDATOR STDOUT]
Checking plan: /home/jfan5/Safety-gen/runs/benchmark/optic/delivery_20260205_114717/delivery/optic_results/delivery_size17_packages1_seed17001.plan
Plan executed successfully - checking goal
Plan valid
Final value: 166 

Successful plans:
Value: 166
 /home/jfan5/Safety-gen/runs/benchmark/optic/delivery_20260205_114717/delivery/optic_results/delivery_size17_packages1_seed17001.plan 166
